Problem:    Airplane
Rows:       6
Columns:    4
Non-zeros:  10
Status:     OPTIMAL
Objective:  obj = 85 (MAXimum)

   No.   Row name   St   Activity     Lower bound   Upper bound    Marginal
------ ------------ -- ------------- ------------- ------------- -------------
     1 obj          B             85                             
     2 c1           NL           420           420           480          -0.5 
     3 c2           B            505           490           520 
     4 c3           NU           590           530           590           0.5 
     5 c4           NL             0            -0                        -0.5 
     6 c5           NL             0            -0                        -0.5 

   No. Column name  St   Activity     Lower bound   Upper bound    Marginal
------ ------------ -- ------------- ------------- ------------- -------------
     1 x1           B            420             0               
     2 x2           B            505             0               
     3 x3           B            590             0               
     4 T            B             85                             

Karush-Kuhn-Tucker optimality conditions:

KKT.PE: max.abs.err = 0.00e+000 on row 0
        max.rel.err = 0.00e+000 on row 0
        High quality

KKT.PB: max.abs.err = 0.00e+000 on row 0
        max.rel.err = 0.00e+000 on row 0
        High quality

KKT.DE: max.abs.err = 0.00e+000 on column 0
        max.rel.err = 0.00e+000 on column 0
        High quality

KKT.DB: max.abs.err = 0.00e+000 on row 0
        max.rel.err = 0.00e+000 on row 0
        High quality

End of output
